32      3       
16      18      16      
0       0       0       0       1       2       
5       3       0       0       1       3       
9       0       0       1       1       4       
8       11      0       0       1       5       
10      3       1       0       1       6       
7       0       5       2       2       7       14      
7       0       0       4       1       8       
3       4       1       0       2       9       11      
7       1       1       0       2       10      16      
8       1       0       1       2       12      19      
7       0       0       1       2       15      16      
6       0       8       10      1       13      
1       0       0       1       1       15      
5       10      0       3       1       16      
8       0       1       1       1       17      
8       0       4       5       1       17      
10      0       0       1       1       18      
9       0       5       0       1       20      
10      1       0       0       1       20      
1       0       1       0       1       21      
3       0       0       1       1       22      
1       10      0       7       2       23      26      
3       2       0       0       2       24      28      
5       1       1       0       1       25      
9       4       0       0       1       27      
5       0       1       7       1       28      
10      0       0       15      1       29      
4       0       18      0       1       29      
1       1       6       0       1       30      
6       1       9       0       1       31      
7       7       6       0       1       32      
0       0       0       0       0       
